/*********************************************
 * OPL 12.6.0.0 Data
 * Author: Adrian Rodriguez Bazaga, Pau Rodriguez Esmerats
 * Creation Date: 09/12/2017 at 00:43:42
 *********************************************/

maxConsec=14;
maxPresence=18;
maxHours=11;
minHours=1;
hours=20;
demand= [12 15 14 14 13 12 13 14 14 14 13 12 11 9 3 1 1 1 1 0  ];
nNurses=19;
